============================[ Problem Statistics ]=============================|                                                                             ||  Number of variables:          4242                                         ||  Number of clauses:            9834                                         ||  Parse time:                   0.24 s                                       ||                                                                             |============================[ Search Statistics ]==============================| Conflicts |          ORIGINAL         |          LEARNT          | Progress ||           |    Vars  Clauses Literals |    Limit  Clauses Lit/Cl |          |===============================================================================|       100 |    1591     6039   355450 |     2214      100     53 | 62.501 % |===============================================================================restarts              : 2conflicts             : 139            (358 /sec)decisions             : 308            (0.00 % random) (794 /sec)propagations          : 9931           (25595 /sec)conflict literals     : 8719           (95.50 % deleted)CPU time              : 0.388 sSATISFIABLE